results/res_prop_muc/res_Cimatti_mathsat_cores/QF_LRA/clocksynchro_4clocks.worst_case_skew.base.smt.smt2.res
unsat
( c0
  c1
  c15
  c2
  c3
  c5 )
